Nodes = {"N1", "N2", "N3", "N4", "N5", "N6", "N7", "N8", "N9", "N10", "N11", "N12", "N13", "N14", "N15", "N16", "N17", "N18", "N19", "N20", "N21", "N22", "N23", "N24", "N25", "N26", "N27"};
Arcs = {<"N1","N2",54,0>, <"N1","N3",54,345>, <"N1","N4",54,479>, <"N1","N5",54,595>, <"N1","N6",54,709>, <"N1","N7",54,732>, <"N1","N8",54,682>, <"N1","N9",54,638>, <"N1","N10",54,602>, <"N1","N11",54,548>, <"N1","N12",54,558>, <"N1","N13",54,559>, <"N1","N14",54,577>, <"N1","N15",54,476>, <"N1","N16",54,439>, <"N1","N17",54,525>, <"N1","N18",54,444>, <"N1","N19",54,282>, <"N1","N20",54,0>, <"N1","N21",54,0>, <"N1","N22",54,246>, <"N1","N23",54,330>, <"N1","N24",54,365>, <"N1","N25",54,415>, <"N1","N26",54,482>, <"N1","N27",54,243>, <"N2","N1",54,0>, <"N2","N3",54,0>, <"N2","N4",54,332>, <"N2","N5",54,476>, <"N2","N6",54,619>, <"N2","N7",54,669>, <"N2","N8",54,654>, <"N2","N9",54,637>, <"N2","N10",54,640>, <"N2","N11",54,608>, <"N2","N12",54,570>, <"N2","N13",54,530>, <"N2","N14",54,495>, <"N2","N15",54,499>, <"N2","N16",54,450>, <"N2","N17",54,469>, <"N2","N18",54,332>, <"N2","N19",54,189>, <"N2","N20",54,0>, <"N2","N21",54,271>, <"N2","N22",54,369>, <"N2","N23",54,436>, <"N2","N24",54,427>, <"N2","N25",54,506>, <"N2","N26",54,559>, <"N2","N27",54,295>, <"N3","N1",54,345>, <"N3","N2",54,0>, <"N3","N4",54,0>, <"N3","N5",54,340>, <"N3","N6",54,517>, <"N3","N7",54,601>, <"N3","N8",54,635>, <"N3","N9",54,653>, <"N3","N10",54,700>, <"N3","N11",54,694>, <"N3","N12",54,605>, <"N3","N13",54,521>, <"N3","N14",54,417>, <"N3","N15",54,556>, <"N3","N16",54,498>, <"N3","N17",54,431>, <"N3","N18",54,232>, <"N3","N19",54,191>, <"N3","N20",54,253>, <"N3","N21",54,451>, <"N3","N22",54,528>, <"N3","N23",54,578>, <"N3","N24",54,529>, <"N3","N25",54,629>, <"N3","N26",54,665>, <"N3","N27",54,410>, <"N4","N1",54,479>, <"N4","N2",54,332>, <"N4","N3",54,0>, <"N4","N5",54,0>, <"N4","N6",54,401>, <"N4","N7",54,507>, <"N4","N8",54,578>, <"N4","N9",54,623>, <"N4","N10",54,703>, <"N4","N11",54,719>, <"N4","N12",54,594>, <"N4","N13",54,481>, <"N4","N14",54,329>, <"N4","N15",54,566>, <"N4","N16",54,508>, <"N4","N17",54,378>, <"N4","N18",54,167>, <"N4","N19",54,0>, <"N4","N20",54,362>, <"N4","N21",54,570>, <"N4","N22",54,623>, <"N4","N23",54,656>, <"N4","N24",54,579>, <"N4","N25",54,688>, <"N4","N26",54,708>, <"N4","N27",54,481>, <"N5","N1",54,595>, <"N5","N2",54,476>, <"N5","N3",54,340>, <"N5","N4",54,0>, <"N5","N6",54,0>, <"N5","N7",54,315>, <"N5","N8",54,421>, <"N5","N9",54,495>, <"N5","N10",54,611>, <"N5","N11",54,655>, <"N5","N12",54,494>, <"N5","N13",54,356>, <"N5","N14",54,0>, <"N5","N15",54,497>, <"N5","N16",54,445>, <"N5","N17",54,253>, <"N5","N18",54,0>, <"N5","N19",54,314>, <"N5","N20",54,457>, <"N5","N21",54,654>, <"N5","N22",54,666>, <"N5","N23",54,670>, <"N5","N24",54,561>, <"N5","N25",54,674>, <"N5","N26",54,670>, <"N5","N27",54,505>, <"N6","N1",54,709>, <"N6","N2",54,619>, <"N6","N3",54,517>, <"N6","N4",54,401>, <"N6","N5",54,0>, <"N6","N7",54,0>, <"N6","N8",54,288>, <"N6","N9",54,392>, <"N6","N10",54,537>, <"N6","N11",54,606>, <"N6","N12",54,424>, <"N6","N13",54,282>, <"N6","N14",54,0>, <"N6","N15",54,461>, <"N6","N16",54,426>, <"N6","N17",54,220>, <"N6","N18",54,292>, <"N6","N19",54,435>, <"N6","N20",54,569>, <"N6","N21",54,740>, <"N6","N22",54,717>, <"N6","N23",54,696>, <"N6","N24",54,568>, <"N6","N25",54,672>, <"N6","N26",54,646>, <"N6","N27",54,557>, <"N7","N1",54,732>, <"N7","N2",54,669>, <"N7","N3",54,601>, <"N7","N4",54,507>, <"N7","N5",54,315>, <"N7","N6",54,0>, <"N7","N8",54,0>, <"N7","N9",54,283>, <"N7","N10",54,438>, <"N7","N11",54,519>, <"N7","N12",54,335>, <"N7","N13",54,212>, <"N7","N14",54,0>, <"N7","N15",54,393>, <"N7","N16",54,373>, <"N7","N17",54,207>, <"N7","N18",54,369>, <"N7","N19",54,480>, <"N7","N20",54,598>, <"N7","N21",54,740>, <"N7","N22",54,693>, <"N7","N23",54,654>, <"N7","N24",54,521>, <"N7","N25",54,614>, <"N7","N26",54,573>, <"N7","N27",54,542>, <"N8","N1",54,682>, <"N8","N2",54,654>, <"N8","N3",54,635>, <"N8","N4",54,578>, <"N8","N5",54,421>, <"N8","N6",54,288>, <"N8","N7",54,0>, <"N8","N9",54,0>, <"N8","N10",54,276>, <"N8","N11",54,364>, <"N8","N12",54,186>, <"N8","N13",54,124>, <"N8","N14",54,258>, <"N8","N15",54,262>, <"N8","N16",54,263>, <"N8","N17",54,204>, <"N8","N18",54,416>, <"N8","N19",54,475>, <"N8","N20",54,562>, <"N8","N21",54,663>, <"N8","N22",54,590>, <"N8","N23",54,536>, <"N8","N24",54,403>, <"N8","N25",54,479>, <"N8","N26",54,427>, <"N8","N27",54,459>, <"N9","N1",54,638>, <"N9","N2",54,637>, <"N9","N3",54,653>, <"N9","N4",54,623>, <"N9","N5",54,495>, <"N9","N6",54,392>, <"N9","N7",54,283>, <"N9","N8",54,0>, <"N9","N10",54,0>, <"N9","N11",54,248>, <"N9","N12",54,0>, <"N9","N13",54,143>, <"N9","N14",54,332>, <"N9","N15",54,175>, <"N9","N16",54,199>, <"N9","N17",54,249>, <"N9","N18",54,456>, <"N9","N19",54,474>, <"N9","N20",54,533>, <"N9","N21",54,599>, <"N9","N22",54,509>, <"N9","N23",54,444>, <"N9","N24",54,317>, <"N9","N25",54,377>, <"N9","N26",54,318>, <"N9","N27",54,400>, <"N10","N1",54,602>, <"N10","N2",54,640>, <"N10","N3",54,700>, <"N10","N4",54,703>, <"N10","N5",54,611>, <"N10","N6",54,537>, <"N10","N7",54,438>, <"N10","N8",54,276>, <"N10","N9",54,0>, <"N10","N11",54,0>, <"N10","N12",54,0>, <"N10","N13",54,262>, <"N10","N14",54,456>, <"N10","N15",54,144>, <"N10","N16",54,202>, <"N10","N17",54,358>, <"N10","N18",54,540>, <"N10","N19",54,510>, <"N10","N20",54,527>, <"N10","N21",54,535>, <"N10","N22",54,422>, <"N10","N23",54,341>, <"N10","N24",54,241>, <"N10","N25",54,256>, <"N10","N26",54,183>, <"N10","N27",54,360>, <"N11","N1",54,548>, <"N11","N2",54,608>, <"N11","N3",54,694>, <"N11","N4",54,719>, <"N11","N5",54,655>, <"N11","N6",54,606>, <"N11","N7",54,519>, <"N11","N8",54,364>, <"N11","N9",54,248>, <"N11","N10",54,0>, <"N11","N12",54,0>, <"N11","N13",54,324>, <"N11","N14",54,510>, <"N11","N15",54,0>, <"N11","N16",54,214>, <"N11","N17",54,408>, <"N11","N18",54,563>, <"N11","N19",54,504>, <"N11","N20",54,493>, <"N11","N21",54,466>, <"N11","N22",54,344>, <"N11","N23",54,257>, <"N11","N24",54,184>, <"N11","N25",54,165>, <"N11","N26",54,0>, <"N11","N27",54,315>, <"N12","N1",54,558>, <"N12","N2",54,570>, <"N12","N3",54,605>, <"N12","N4",54,594>, <"N12","N5",54,494>, <"N12","N6",54,424>, <"N12","N7",54,335>, <"N12","N8",54,186>, <"N12","N9",54,0>, <"N12","N10",54,0>, <"N12","N11",54,0>, <"N12","N13",54,0>, <"N12","N14",54,339>, <"N12","N15",54,88>, <"N12","N16",54,121>, <"N12","N17",54,241>, <"N12","N18",54,429>, <"N12","N19",54,419>, <"N12","N20",54,461>, <"N12","N21",54,514>, <"N12","N22",54,422>, <"N12","N23",54,358>, <"N12","N24",54,230>, <"N12","N25",54,295>, <"N12","N26",54,242>, <"N12","N27",54,318>, <"N13","N1",54,559>, <"N13","N2",54,530>, <"N13","N3",54,521>, <"N13","N4",54,481>, <"N13","N5",54,356>, <"N13","N6",54,282>, <"N13","N7",54,212>, <"N13","N8",54,124>, <"N13","N9",54,143>, <"N13","N10",54,262>, <"N13","N11",54,324>, <"N13","N12",54,0>, <"N13","N14",54,196>, <"N13","N15",54,0>, <"N13","N16",54,161>, <"N13","N17",54,0>, <"N13","N18",54,315>, <"N13","N19",54,353>, <"N13","N20",54,437>, <"N13","N21",54,547>, <"N13","N22",54,486>, <"N13","N23",54,443>, <"N13","N24",54,309>, <"N13","N25",54,403>, <"N13","N26",54,367>, <"N13","N27",54,344>, <"N14","N1",54,577>, <"N14","N2",54,495>, <"N14","N3",54,417>, <"N14","N4",54,329>, <"N14","N5",54,0>, <"N14","N6",54,0>, <"N14","N7",54,0>, <"N14","N8",54,258>, <"N14","N9",54,332>, <"N14","N10",54,456>, <"N14","N11",54,510>, <"N14","N12",54,339>, <"N14","N13",54,196>, <"N14","N15",54,356>, <"N14","N16",54,311>, <"N14","N17",54,0>, <"N14","N18",54,184>, <"N14","N19",54,307>, <"N14","N20",54,438>, <"N14","N21",54,606>, <"N14","N22",54,586>, <"N14","N23",54,570>, <"N14","N24",54,446>, <"N14","N25",54,555>, <"N14","N26",54,537>, <"N14","N27",54,424>, <"N15","N1",54,476>, <"N15","N2",54,499>, <"N15","N3",54,556>, <"N15","N4",54,566>, <"N15","N5",54,497>, <"N15","N6",54,461>, <"N15","N7",54,393>, <"N15","N8",54,262>, <"N15","N9",54,175>, <"N15","N10",54,144>, <"N15","N11",54,0>, <"N15","N12",54,88>, <"N15","N13",54,0>, <"N15","N14",54,356>, <"N15","N16",54,0>, <"N15","N17",54,254>, <"N15","N18",54,407>, <"N15","N19",54,366>, <"N15","N20",54,387>, <"N15","N21",54,426>, <"N15","N22",54,335>, <"N15","N23",54,274>, <"N15","N24",54,143>, <"N15","N25",54,221>, <"N15","N26",54,184>, <"N15","N27",54,233>, <"N16","N1",54,439>, <"N16","N2",54,450>, <"N16","N3",54,498>, <"N16","N4",54,508>, <"N16","N5",54,445>, <"N16","N6",54,426>, <"N16","N7",54,373>, <"N16","N8",54,263>, <"N16","N9",54,199>, <"N16","N10",54,202>, <"N16","N11",54,214>, <"N16","N12",54,121>, <"N16","N13",54,161>, <"N16","N14",54,311>, <"N16","N15",54,0>, <"N16","N17",54,0>, <"N16","N18",54,0>, <"N16","N19",54,0>, <"N16","N20",54,340>, <"N16","N21",54,404>, <"N16","N22",54,328>, <"N16","N23",54,282>, <"N16","N24",54,0>, <"N16","N25",54,247>, <"N16","N26",54,0>, <"N16","N27",54,202>, <"N17","N1",54,525>, <"N17","N2",54,469>, <"N17","N3",54,431>, <"N17","N4",54,378>, <"N17","N5",54,253>, <"N17","N6",54,220>, <"N17","N7",54,207>, <"N17","N8",54,204>, <"N17","N9",54,249>, <"N17","N10",54,358>, <"N17","N11",54,408>, <"N17","N12",54,241>, <"N17","N13",54,0>, <"N17","N14",54,0>, <"N17","N15",54,254>, <"N17","N16",54,0>, <"N17","N18",54,0>, <"N17","N19",54,282>, <"N17","N20",54,391>, <"N17","N21",54,536>, <"N17","N22",54,500>, <"N17","N23",54,476>, <"N17","N24",54,349>, <"N17","N25",54,455>, <"N17","N26",54,435>, <"N17","N27",54,343>, <"N18","N1",54,444>, <"N18","N2",54,332>, <"N18","N3",54,232>, <"N18","N4",54,167>, <"N18","N5",54,0>, <"N18","N6",54,292>, <"N18","N7",54,369>, <"N18","N8",54,416>, <"N18","N9",54,456>, <"N18","N10",54,540>, <"N18","N11",54,563>, <"N18","N12",54,429>, <"N18","N13",54,315>, <"N18","N14",54,184>, <"N18","N15",54,407>, <"N18","N16",54,0>, <"N18","N17",54,0>, <"N18","N19",54,0>, <"N18","N20",54,305>, <"N18","N21",54,503>, <"N18","N22",54,523>, <"N18","N23",54,536>, <"N18","N24",54,440>, <"N18","N25",54,553>, <"N18","N26",54,562>, <"N18","N27",54,365>, <"N19","N1",54,282>, <"N19","N2",54,189>, <"N19","N3",54,191>, <"N19","N4",54,0>, <"N19","N5",54,314>, <"N19","N6",54,435>, <"N19","N7",54,480>, <"N19","N8",54,475>, <"N19","N9",54,474>, <"N19","N10",54,510>, <"N19","N11",54,504>, <"N19","N12",54,419>, <"N19","N13",54,353>, <"N19","N14",54,307>, <"N19","N15",54,366>, <"N19","N16",54,0>, <"N19","N17",54,282>, <"N19","N18",54,0>, <"N19","N20",54,0>, <"N19","N21",54,344>, <"N19","N22",54,380>, <"N19","N23",54,411>, <"N19","N24",54,0>, <"N19","N25",54,450>, <"N19","N26",54,479>, <"N19","N27",54,0>, <"N20","N1",54,0>, <"N20","N2",54,0>, <"N20","N3",54,253>, <"N20","N4",54,362>, <"N20","N5",54,457>, <"N20","N6",54,569>, <"N20","N7",54,598>, <"N20","N8",54,562>, <"N20","N9",54,533>, <"N20","N10",54,527>, <"N20","N11",54,493>, <"N20","N12",54,461>, <"N20","N13",54,437>, <"N20","N14",54,438>, <"N20","N15",54,387>, <"N20","N16",54,340>, <"N20","N17",54,391>, <"N20","N18",54,305>, <"N20","N19",54,0>, <"N20","N21",54,0>, <"N20","N22",54,0>, <"N20","N23",54,331>, <"N20","N24",54,311>, <"N20","N25",54,395>, <"N20","N26",54,445>, <"N20","N27",54,0>, <"N21","N1",54,0>, <"N21","N2",54,271>, <"N21","N3",54,451>, <"N21","N4",54,570>, <"N21","N5",54,654>, <"N21","N6",54,740>, <"N21","N7",54,740>, <"N21","N8",54,663>, <"N21","N9",54,599>, <"N21","N10",54,535>, <"N21","N11",54,466>, <"N21","N12",54,514>, <"N21","N13",54,547>, <"N21","N14",54,606>, <"N21","N15",54,426>, <"N21","N16",54,404>, <"N21","N17",54,536>, <"N21","N18",54,503>, <"N21","N19",54,344>, <"N21","N20",54,0>, <"N21","N22",54,0>, <"N21","N23",54,224>, <"N21","N24",54,295>, <"N21","N25",54,316>, <"N21","N26",54,390>, <"N21","N27",54,203>, <"N22","N1",54,246>, <"N22","N2",54,369>, <"N22","N3",54,528>, <"N22","N4",54,623>, <"N22","N5",54,666>, <"N22","N6",54,717>, <"N22","N7",54,693>, <"N22","N8",54,590>, <"N22","N9",54,509>, <"N22","N10",54,422>, <"N22","N11",54,344>, <"N22","N12",54,422>, <"N22","N13",54,486>, <"N22","N14",54,586>, <"N22","N15",54,335>, <"N22","N16",54,328>, <"N22","N17",54,500>, <"N22","N18",54,523>, <"N22","N19",54,380>, <"N22","N20",54,0>, <"N22","N21",54,0>, <"N22","N23",54,0>, <"N22","N24",54,0>, <"N22","N25",54,186>, <"N22","N26",54,263>, <"N22","N27",54,0>, <"N23","N1",54,330>, <"N23","N2",54,436>, <"N23","N3",54,578>, <"N23","N4",54,656>, <"N23","N5",54,670>, <"N23","N6",54,696>, <"N23","N7",54,654>, <"N23","N8",54,536>, <"N23","N9",54,444>, <"N23","N10",54,341>, <"N23","N11",54,257>, <"N23","N12",54,358>, <"N23","N13",54,443>, <"N23","N14",54,570>, <"N23","N15",54,274>, <"N23","N16",54,282>, <"N23","N17",54,476>, <"N23","N18",54,536>, <"N23","N19",54,411>, <"N23","N20",54,331>, <"N23","N21",54,224>, <"N23","N22",54,0>, <"N23","N24",54,0>, <"N23","N25",54,0>, <"N23","N26",54,173>, <"N23","N27",54,0>, <"N24","N1",54,365>, <"N24","N2",54,427>, <"N24","N3",54,529>, <"N24","N4",54,579>, <"N24","N5",54,561>, <"N24","N6",54,568>, <"N24","N7",54,521>, <"N24","N8",54,403>, <"N24","N9",54,317>, <"N24","N10",54,241>, <"N24","N11",54,184>, <"N24","N12",54,230>, <"N24","N13",54,309>, <"N24","N14",54,446>, <"N24","N15",54,143>, <"N24","N16",54,0>, <"N24","N17",54,349>, <"N24","N18",54,440>, <"N24","N19",54,0>, <"N24","N20",54,311>, <"N24","N21",54,295>, <"N24","N22",54,0>, <"N24","N23",54,0>, <"N24","N25",54,0>, <"N24","N26",54,136>, <"N24","N27",54,0>, <"N25","N1",54,415>, <"N25","N2",54,506>, <"N25","N3",54,629>, <"N25","N4",54,688>, <"N25","N5",54,674>, <"N25","N6",54,672>, <"N25","N7",54,614>, <"N25","N8",54,479>, <"N25","N9",54,377>, <"N25","N10",54,256>, <"N25","N11",54,165>, <"N25","N12",54,295>, <"N25","N13",54,403>, <"N25","N14",54,555>, <"N25","N15",54,221>, <"N25","N16",54,247>, <"N25","N17",54,455>, <"N25","N18",54,553>, <"N25","N19",54,450>, <"N25","N20",54,395>, <"N25","N21",54,316>, <"N25","N22",54,186>, <"N25","N23",54,0>, <"N25","N24",54,0>, <"N25","N26",54,0>, <"N25","N27",54,219>, <"N26","N1",54,482>, <"N26","N2",54,559>, <"N26","N3",54,665>, <"N26","N4",54,708>, <"N26","N5",54,670>, <"N26","N6",54,646>, <"N26","N7",54,573>, <"N26","N8",54,427>, <"N26","N9",54,318>, <"N26","N10",54,183>, <"N26","N11",54,0>, <"N26","N12",54,242>, <"N26","N13",54,367>, <"N26","N14",54,537>, <"N26","N15",54,184>, <"N26","N16",54,0>, <"N26","N17",54,435>, <"N26","N18",54,562>, <"N26","N19",54,479>, <"N26","N20",54,445>, <"N26","N21",54,390>, <"N26","N22",54,263>, <"N26","N23",54,173>, <"N26","N24",54,136>, <"N26","N25",54,0>, <"N26","N27",54,265>, <"N27","N1",54,243>, <"N27","N2",54,295>, <"N27","N3",54,410>, <"N27","N4",54,481>, <"N27","N5",54,505>, <"N27","N6",54,557>, <"N27","N7",54,542>, <"N27","N8",54,459>, <"N27","N9",54,400>, <"N27","N10",54,360>, <"N27","N11",54,315>, <"N27","N12",54,318>, <"N27","N13",54,344>, <"N27","N14",54,424>, <"N27","N15",54,233>, <"N27","N16",54,202>, <"N27","N17",54,343>, <"N27","N18",54,365>, <"N27","N19",54,0>, <"N27","N20",54,0>, <"N27","N21",54,203>, <"N27","N22",54,0>, <"N27","N23",54,0>, <"N27","N24",54,0>, <"N27","N25",54,219>, <"N27","N26",54,265>};
Demands = {<"N1","N2",2,0>, <"N1","N3",4,0>, <"N1","N4",6,0>, <"N1","N5",8,0>, <"N1","N6",10,0>, <"N1","N7",12,0>, <"N1","N8",14,0>, <"N1","N9",16,0>, <"N1","N10",18,0>, <"N1","N11",20,0>, <"N1","N12",22,0>, <"N1","N13",24,0>, <"N1","N14",26,0>, <"N1","N15",28,0>, <"N1","N16",30,0>, <"N1","N17",32,0>, <"N1","N18",34,0>, <"N1","N19",36,0>, <"N1","N20",38,0>, <"N1","N21",40,0>, <"N1","N22",42,0>, <"N1","N23",44,0>, <"N1","N24",46,0>, <"N1","N25",48,0>, <"N1","N26",50,0>, <"N1","N27",52,0>, <"N2","N1",2,0>, <"N2","N3",2,0>, <"N2","N4",4,0>, <"N2","N5",6,0>, <"N2","N6",8,0>, <"N2","N7",10,0>, <"N2","N8",12,0>, <"N2","N9",14,0>, <"N2","N10",16,0>, <"N2","N11",18,0>, <"N2","N12",20,0>, <"N2","N13",22,0>, <"N2","N14",24,0>, <"N2","N15",26,0>, <"N2","N16",28,0>, <"N2","N17",30,0>, <"N2","N18",32,0>, <"N2","N19",34,0>, <"N2","N20",36,0>, <"N2","N21",38,0>, <"N2","N22",40,0>, <"N2","N23",42,0>, <"N2","N24",44,0>, <"N2","N25",46,0>, <"N2","N26",48,0>, <"N2","N27",50,0>, <"N3","N1",4,0>, <"N3","N2",2,0>, <"N3","N4",2,0>, <"N3","N5",4,0>, <"N3","N6",6,0>, <"N3","N7",8,0>, <"N3","N8",10,0>, <"N3","N9",12,0>, <"N3","N10",14,0>, <"N3","N11",16,0>, <"N3","N12",18,0>, <"N3","N13",20,0>, <"N3","N14",22,0>, <"N3","N15",24,0>, <"N3","N16",26,0>, <"N3","N17",28,0>, <"N3","N18",30,0>, <"N3","N19",32,0>, <"N3","N20",34,0>, <"N3","N21",36,0>, <"N3","N22",38,0>, <"N3","N23",40,0>, <"N3","N24",42,0>, <"N3","N25",44,0>, <"N3","N26",46,0>, <"N3","N27",48,0>, <"N4","N1",6,0>, <"N4","N2",4,0>, <"N4","N3",2,0>, <"N4","N5",2,0>, <"N4","N6",4,0>, <"N4","N7",6,0>, <"N4","N8",8,0>, <"N4","N9",10,0>, <"N4","N10",12,0>, <"N4","N11",14,0>, <"N4","N12",16,0>, <"N4","N13",18,0>, <"N4","N14",20,0>, <"N4","N15",22,0>, <"N4","N16",24,0>, <"N4","N17",26,0>, <"N4","N18",28,0>, <"N4","N19",30,0>, <"N4","N20",32,0>, <"N4","N21",34,0>, <"N4","N22",36,0>, <"N4","N23",38,0>, <"N4","N24",40,0>, <"N4","N25",42,0>, <"N4","N26",44,0>, <"N4","N27",46,0>, <"N5","N1",8,0>, <"N5","N2",6,0>, <"N5","N3",4,0>, <"N5","N4",2,0>, <"N5","N6",2,0>, <"N5","N7",4,0>, <"N5","N8",6,0>, <"N5","N9",8,0>, <"N5","N10",10,0>, <"N5","N11",12,0>, <"N5","N12",14,0>, <"N5","N13",16,0>, <"N5","N14",18,0>, <"N5","N15",20,0>, <"N5","N16",22,0>, <"N5","N17",24,0>, <"N5","N18",26,0>, <"N5","N19",28,0>, <"N5","N20",30,0>, <"N5","N21",32,0>, <"N5","N22",34,0>, <"N5","N23",36,0>, <"N5","N24",38,0>, <"N5","N25",40,0>, <"N5","N26",42,0>, <"N5","N27",44,0>, <"N6","N1",10,0>, <"N6","N2",8,0>, <"N6","N3",6,0>, <"N6","N4",4,0>, <"N6","N5",2,0>, <"N6","N7",2,0>, <"N6","N8",4,0>, <"N6","N9",6,0>, <"N6","N10",8,0>, <"N6","N11",10,0>, <"N6","N12",12,0>, <"N6","N13",14,0>, <"N6","N14",16,0>, <"N6","N15",18,0>, <"N6","N16",20,0>, <"N6","N17",22,0>, <"N6","N18",24,0>, <"N6","N19",26,0>, <"N6","N20",28,0>, <"N6","N21",30,0>, <"N6","N22",32,0>, <"N6","N23",34,0>, <"N6","N24",36,0>, <"N6","N25",38,0>, <"N6","N26",40,0>, <"N6","N27",42,0>, <"N7","N1",12,0>, <"N7","N2",10,0>, <"N7","N3",8,0>, <"N7","N4",6,0>, <"N7","N5",4,0>, <"N7","N6",2,0>, <"N7","N8",2,0>, <"N7","N9",4,0>, <"N7","N10",6,0>, <"N7","N11",8,0>, <"N7","N12",10,0>, <"N7","N13",12,0>, <"N7","N14",14,0>, <"N7","N15",16,0>, <"N7","N16",18,0>, <"N7","N17",20,0>, <"N7","N18",22,0>, <"N7","N19",24,0>, <"N7","N20",26,0>, <"N7","N21",28,0>, <"N7","N22",30,0>, <"N7","N23",32,0>, <"N7","N24",34,0>, <"N7","N25",36,0>, <"N7","N26",38,0>, <"N7","N27",40,0>, <"N8","N1",14,0>, <"N8","N2",12,0>, <"N8","N3",10,0>, <"N8","N4",8,0>, <"N8","N5",6,0>, <"N8","N6",4,0>, <"N8","N7",2,0>, <"N8","N9",2,0>, <"N8","N10",4,0>, <"N8","N11",6,0>, <"N8","N12",8,0>, <"N8","N13",10,0>, <"N8","N14",12,0>, <"N8","N15",14,0>, <"N8","N16",16,0>, <"N8","N17",18,0>, <"N8","N18",20,0>, <"N8","N19",22,0>, <"N8","N20",24,0>, <"N8","N21",26,0>, <"N8","N22",28,0>, <"N8","N23",30,0>, <"N8","N24",32,0>, <"N8","N25",34,0>, <"N8","N26",36,0>, <"N8","N27",38,0>, <"N9","N1",16,0>, <"N9","N2",14,0>, <"N9","N3",12,0>, <"N9","N4",10,0>, <"N9","N5",8,0>, <"N9","N6",6,0>, <"N9","N7",4,0>, <"N9","N8",2,0>, <"N9","N10",2,0>, <"N9","N11",4,0>, <"N9","N12",6,0>, <"N9","N13",8,0>, <"N9","N14",10,0>, <"N9","N15",12,0>, <"N9","N16",14,0>, <"N9","N17",16,0>, <"N9","N18",18,0>, <"N9","N19",20,0>, <"N9","N20",22,0>, <"N9","N21",24,0>, <"N9","N22",26,0>, <"N9","N23",28,0>, <"N9","N24",30,0>, <"N9","N25",32,0>, <"N9","N26",34,0>, <"N9","N27",36,0>, <"N10","N1",18,0>, <"N10","N2",16,0>, <"N10","N3",14,0>, <"N10","N4",12,0>, <"N10","N5",10,0>, <"N10","N6",8,0>, <"N10","N7",6,0>, <"N10","N8",4,0>, <"N10","N9",2,0>, <"N10","N11",2,0>, <"N10","N12",4,0>, <"N10","N13",6,0>, <"N10","N14",8,0>, <"N10","N15",10,0>, <"N10","N16",12,0>, <"N10","N17",14,0>, <"N10","N18",16,0>, <"N10","N19",18,0>, <"N10","N20",20,0>, <"N10","N21",22,0>, <"N10","N22",24,0>, <"N10","N23",26,0>, <"N10","N24",28,0>, <"N10","N25",30,0>, <"N10","N26",32,0>, <"N10","N27",34,0>, <"N11","N1",20,0>, <"N11","N2",18,0>, <"N11","N3",16,0>, <"N11","N4",14,0>, <"N11","N5",12,0>, <"N11","N6",10,0>, <"N11","N7",8,0>, <"N11","N8",6,0>, <"N11","N9",4,0>, <"N11","N10",2,0>, <"N11","N12",2,0>, <"N11","N13",4,0>, <"N11","N14",6,0>, <"N11","N15",8,0>, <"N11","N16",10,0>, <"N11","N17",12,0>, <"N11","N18",14,0>, <"N11","N19",16,0>, <"N11","N20",18,0>, <"N11","N21",20,0>, <"N11","N22",22,0>, <"N11","N23",24,0>, <"N11","N24",26,0>, <"N11","N25",28,0>, <"N11","N26",30,0>, <"N11","N27",32,0>, <"N12","N1",22,0>, <"N12","N2",20,0>, <"N12","N3",18,0>, <"N12","N4",16,0>, <"N12","N5",14,0>, <"N12","N6",12,0>, <"N12","N7",10,0>, <"N12","N8",8,0>, <"N12","N9",6,0>, <"N12","N10",4,0>, <"N12","N11",2,0>, <"N12","N13",2,0>, <"N12","N14",4,0>, <"N12","N15",6,0>, <"N12","N16",8,0>, <"N12","N17",10,0>, <"N12","N18",12,0>, <"N12","N19",14,0>, <"N12","N20",16,0>, <"N12","N21",18,0>, <"N12","N22",20,0>, <"N12","N23",22,0>, <"N12","N24",24,0>, <"N12","N25",26,0>, <"N12","N26",28,0>, <"N12","N27",30,0>, <"N13","N1",24,0>, <"N13","N2",22,0>, <"N13","N3",20,0>, <"N13","N4",18,0>, <"N13","N5",16,0>, <"N13","N6",14,0>, <"N13","N7",12,0>, <"N13","N8",10,0>, <"N13","N9",8,0>, <"N13","N10",6,0>, <"N13","N11",4,0>, <"N13","N12",2,0>, <"N13","N14",2,0>, <"N13","N15",4,0>, <"N13","N16",6,0>, <"N13","N17",8,0>, <"N13","N18",10,0>, <"N13","N19",12,0>, <"N13","N20",14,0>, <"N13","N21",16,0>, <"N13","N22",18,0>, <"N13","N23",20,0>, <"N13","N24",22,0>, <"N13","N25",24,0>, <"N13","N26",26,0>, <"N13","N27",28,0>, <"N14","N1",26,0>, <"N14","N2",24,0>, <"N14","N3",22,0>, <"N14","N4",20,0>, <"N14","N5",18,0>, <"N14","N6",16,0>, <"N14","N7",14,0>, <"N14","N8",12,0>, <"N14","N9",10,0>, <"N14","N10",8,0>, <"N14","N11",6,0>, <"N14","N12",4,0>, <"N14","N13",2,0>, <"N14","N15",2,0>, <"N14","N16",4,0>, <"N14","N17",6,0>, <"N14","N18",8,0>, <"N14","N19",10,0>, <"N14","N20",12,0>, <"N14","N21",14,0>, <"N14","N22",16,0>, <"N14","N23",18,0>, <"N14","N24",20,0>, <"N14","N25",22,0>, <"N14","N26",24,0>, <"N14","N27",26,0>, <"N15","N1",28,0>, <"N15","N2",26,0>, <"N15","N3",24,0>, <"N15","N4",22,0>, <"N15","N5",20,0>, <"N15","N6",18,0>, <"N15","N7",16,0>, <"N15","N8",14,0>, <"N15","N9",12,0>, <"N15","N10",10,0>, <"N15","N11",8,0>, <"N15","N12",6,0>, <"N15","N13",4,0>, <"N15","N14",2,0>, <"N15","N16",2,0>, <"N15","N17",4,0>, <"N15","N18",6,0>, <"N15","N19",8,0>, <"N15","N20",10,0>, <"N15","N21",12,0>, <"N15","N22",14,0>, <"N15","N23",16,0>, <"N15","N24",18,0>, <"N15","N25",20,0>, <"N15","N26",22,0>, <"N15","N27",24,0>, <"N16","N1",30,0>, <"N16","N2",28,0>, <"N16","N3",26,0>, <"N16","N4",24,0>, <"N16","N5",22,0>, <"N16","N6",20,0>, <"N16","N7",18,0>, <"N16","N8",16,0>, <"N16","N9",14,0>, <"N16","N10",12,0>, <"N16","N11",10,0>, <"N16","N12",8,0>, <"N16","N13",6,0>, <"N16","N14",4,0>, <"N16","N15",2,0>, <"N16","N17",2,0>, <"N16","N18",4,0>, <"N16","N19",6,0>, <"N16","N20",8,0>, <"N16","N21",10,0>, <"N16","N22",12,0>, <"N16","N23",14,0>, <"N16","N24",16,0>, <"N16","N25",18,0>, <"N16","N26",20,0>, <"N16","N27",22,0>, <"N17","N1",32,0>, <"N17","N2",30,0>, <"N17","N3",28,0>, <"N17","N4",26,0>, <"N17","N5",24,0>, <"N17","N6",22,0>, <"N17","N7",20,0>, <"N17","N8",18,0>, <"N17","N9",16,0>, <"N17","N10",14,0>, <"N17","N11",12,0>, <"N17","N12",10,0>, <"N17","N13",8,0>, <"N17","N14",6,0>, <"N17","N15",4,0>, <"N17","N16",2,0>, <"N17","N18",2,0>, <"N17","N19",4,0>, <"N17","N20",6,0>, <"N17","N21",8,0>, <"N17","N22",10,0>, <"N17","N23",12,0>, <"N17","N24",14,0>, <"N17","N25",16,0>, <"N17","N26",18,0>, <"N17","N27",20,0>, <"N18","N1",34,0>, <"N18","N2",32,0>, <"N18","N3",30,0>, <"N18","N4",28,0>, <"N18","N5",26,0>, <"N18","N6",24,0>, <"N18","N7",22,0>, <"N18","N8",20,0>, <"N18","N9",18,0>, <"N18","N10",16,0>, <"N18","N11",14,0>, <"N18","N12",12,0>, <"N18","N13",10,0>, <"N18","N14",8,0>, <"N18","N15",6,0>, <"N18","N16",4,0>, <"N18","N17",2,0>, <"N18","N19",2,0>, <"N18","N20",4,0>, <"N18","N21",6,0>, <"N18","N22",8,0>, <"N18","N23",10,0>, <"N18","N24",12,0>, <"N18","N25",14,0>, <"N18","N26",16,0>, <"N18","N27",18,0>, <"N19","N1",36,0>, <"N19","N2",34,0>, <"N19","N3",32,0>, <"N19","N4",30,0>, <"N19","N5",28,0>, <"N19","N6",26,0>, <"N19","N7",24,0>, <"N19","N8",22,0>, <"N19","N9",20,0>, <"N19","N10",18,0>, <"N19","N11",16,0>, <"N19","N12",14,0>, <"N19","N13",12,0>, <"N19","N14",10,0>, <"N19","N15",8,0>, <"N19","N16",6,0>, <"N19","N17",4,0>, <"N19","N18",2,0>, <"N19","N20",2,0>, <"N19","N21",4,0>, <"N19","N22",6,0>, <"N19","N23",8,0>, <"N19","N24",10,0>, <"N19","N25",12,0>, <"N19","N26",14,0>, <"N19","N27",16,0>, <"N20","N1",38,0>, <"N20","N2",36,0>, <"N20","N3",34,0>, <"N20","N4",32,0>, <"N20","N5",30,0>, <"N20","N6",28,0>, <"N20","N7",26,0>, <"N20","N8",24,0>, <"N20","N9",22,0>, <"N20","N10",20,0>, <"N20","N11",18,0>, <"N20","N12",16,0>, <"N20","N13",14,0>, <"N20","N14",12,0>, <"N20","N15",10,0>, <"N20","N16",8,0>, <"N20","N17",6,0>, <"N20","N18",4,0>, <"N20","N19",2,0>, <"N20","N21",2,0>, <"N20","N22",4,0>, <"N20","N23",6,0>, <"N20","N24",8,0>, <"N20","N25",10,0>, <"N20","N26",12,0>, <"N20","N27",14,0>, <"N21","N1",40,0>, <"N21","N2",38,0>, <"N21","N3",36,0>, <"N21","N4",34,0>, <"N21","N5",32,0>, <"N21","N6",30,0>, <"N21","N7",28,0>, <"N21","N8",26,0>, <"N21","N9",24,0>, <"N21","N10",22,0>, <"N21","N11",20,0>, <"N21","N12",18,0>, <"N21","N13",16,0>, <"N21","N14",14,0>, <"N21","N15",12,0>, <"N21","N16",10,0>, <"N21","N17",8,0>, <"N21","N18",6,0>, <"N21","N19",4,0>, <"N21","N20",2,0>, <"N21","N22",2,0>, <"N21","N23",4,0>, <"N21","N24",6,0>, <"N21","N25",8,0>, <"N21","N26",10,0>, <"N21","N27",12,0>, <"N22","N1",42,0>, <"N22","N2",40,0>, <"N22","N3",38,0>, <"N22","N4",36,0>, <"N22","N5",34,0>, <"N22","N6",32,0>, <"N22","N7",30,0>, <"N22","N8",28,0>, <"N22","N9",26,0>, <"N22","N10",24,0>, <"N22","N11",22,0>, <"N22","N12",20,0>, <"N22","N13",18,0>, <"N22","N14",16,0>, <"N22","N15",14,0>, <"N22","N16",12,0>, <"N22","N17",10,0>, <"N22","N18",8,0>, <"N22","N19",6,0>, <"N22","N20",4,0>, <"N22","N21",2,0>, <"N22","N23",2,0>, <"N22","N24",4,0>, <"N22","N25",6,0>, <"N22","N26",8,0>, <"N22","N27",10,0>, <"N23","N1",44,0>, <"N23","N2",42,0>, <"N23","N3",40,0>, <"N23","N4",38,0>, <"N23","N5",36,0>, <"N23","N6",34,0>, <"N23","N7",32,0>, <"N23","N8",30,0>, <"N23","N9",28,0>, <"N23","N10",26,0>, <"N23","N11",24,0>, <"N23","N12",22,0>, <"N23","N13",20,0>, <"N23","N14",18,0>, <"N23","N15",16,0>, <"N23","N16",14,0>, <"N23","N17",12,0>, <"N23","N18",10,0>, <"N23","N19",8,0>, <"N23","N20",6,0>, <"N23","N21",4,0>, <"N23","N22",2,0>, <"N23","N24",2,0>, <"N23","N25",4,0>, <"N23","N26",6,0>, <"N23","N27",8,0>, <"N24","N1",46,0>, <"N24","N2",44,0>, <"N24","N3",42,0>, <"N24","N4",40,0>, <"N24","N5",38,0>, <"N24","N6",36,0>, <"N24","N7",34,0>, <"N24","N8",32,0>, <"N24","N9",30,0>, <"N24","N10",28,0>, <"N24","N11",26,0>, <"N24","N12",24,0>, <"N24","N13",22,0>, <"N24","N14",20,0>, <"N24","N15",18,0>, <"N24","N16",16,0>, <"N24","N17",14,0>, <"N24","N18",12,0>, <"N24","N19",10,0>, <"N24","N20",8,0>, <"N24","N21",6,0>, <"N24","N22",4,0>, <"N24","N23",2,0>, <"N24","N25",2,0>, <"N24","N26",4,0>, <"N24","N27",6,0>, <"N25","N1",48,0>, <"N25","N2",46,0>, <"N25","N3",44,0>, <"N25","N4",42,0>, <"N25","N5",40,0>, <"N25","N6",38,0>, <"N25","N7",36,0>, <"N25","N8",34,0>, <"N25","N9",32,0>, <"N25","N10",30,0>, <"N25","N11",28,0>, <"N25","N12",26,0>, <"N25","N13",24,0>, <"N25","N14",22,0>, <"N25","N15",20,0>, <"N25","N16",18,0>, <"N25","N17",16,0>, <"N25","N18",14,0>, <"N25","N19",12,0>, <"N25","N20",10,0>, <"N25","N21",8,0>, <"N25","N22",6,0>, <"N25","N23",4,0>, <"N25","N24",2,0>, <"N25","N26",2,0>, <"N25","N27",4,0>, <"N26","N1",50,0>, <"N26","N2",48,0>, <"N26","N3",46,0>, <"N26","N4",44,0>, <"N26","N5",42,0>, <"N26","N6",40,0>, <"N26","N7",38,0>, <"N26","N8",36,0>, <"N26","N9",34,0>, <"N26","N10",32,0>, <"N26","N11",30,0>, <"N26","N12",28,0>, <"N26","N13",26,0>, <"N26","N14",24,0>, <"N26","N15",22,0>, <"N26","N16",20,0>, <"N26","N17",18,0>, <"N26","N18",16,0>, <"N26","N19",14,0>, <"N26","N20",12,0>, <"N26","N21",10,0>, <"N26","N22",8,0>, <"N26","N23",6,0>, <"N26","N24",4,0>, <"N26","N25",2,0>, <"N26","N27",2,0>, <"N27","N1",52,0>, <"N27","N2",50,0>, <"N27","N3",48,0>, <"N27","N4",46,0>, <"N27","N5",44,0>, <"N27","N6",42,0>, <"N27","N7",40,0>, <"N27","N8",38,0>, <"N27","N9",36,0>, <"N27","N10",34,0>, <"N27","N11",32,0>, <"N27","N12",30,0>, <"N27","N13",28,0>, <"N27","N14",26,0>, <"N27","N15",24,0>, <"N27","N16",22,0>, <"N27","N17",20,0>, <"N27","N18",18,0>, <"N27","N19",16,0>, <"N27","N20",14,0>, <"N27","N21",12,0>, <"N27","N22",10,0>, <"N27","N23",8,0>, <"N27","N24",6,0>, <"N27","N25",4,0>, <"N27","N26",2,0>};
